submitit INFO (2023-05-02 18:49:22,192) - Starting with JobEnvironment(job_id=27723, hostname=cpunode2, local_rank=3(5), node=0(1), global_rank=3(5))
submitit INFO (2023-05-02 18:49:22,192) - Loading pickle: /h/30/pashootan/Matrix-Mult-CP/src/../logs/4/1x2x1_2_May02_18:49:19/27723_submitted.pkl
 ! --------------------------------------------------- CP Optimizer 22.1.1.0 --
 ! Satisfiability problem - 10 variables, 4 constraints
 ! TimeLimit            = 7200
 ! Workers              = 8
 ! LogPeriod            = 10000000
 ! RandomSeed           = 5876
 ! Initial process time : 0.02s (0.02s extraction + 0.00s propagation)
 !  . Log search space  : 15.8 (before), 15.8 (after)
 !  . Memory usage      : 267.3 kB (before), 267.3 kB (after)
 ! Using parallel search with 8 workers.
 ! ----------------------------------------------------------------------------
 !               Branches  Non-fixed    W       Branch decision
 *                     12  0.02s        1        -1  = V1_0
 ! ----------------------------------------------------------------------------
 ! Search completed, 1 solution found.
 ! ----------------------------------------------------------------------------
 ! Number of branches     : 231
 ! Number of fails        : 89
 ! Total memory usage     : 4.1 MB (4.0 MB CP Optimizer + 0.0 MB Concert)
 ! Time spent in solve    : 0.02s (0.00s engine + 0.02s extraction)
 ! Search speed (br. / s) : 23100.0
 ! ----------------------------------------------------------------------------
Feasible
Model is valid
Saving solution to: /h/30/pashootan/Matrix-Mult-CP/logs/4/1x2x1_2_May02_18:49:19/27723_3_solution.txt
Saving stats to: /h/30/pashootan/Matrix-Mult-CP/logs/4/1x2x1_2_May02_18:49:19/27723_3_stats.csv
submitit INFO (2023-05-02 18:49:22,567) - Job completed successfully
